benchmarks_vrp/CMT5/tsp_classic/CMT5_3.vrp
NAME: CMT5_3
TYPE: CVRP
COMMENT: 1291.29 - Cluster Nr.3
DIMENSION: 12
CAPACITY: 200
EDGE_WEIGHT_TYPE: EUC_2D
NODE_COORD_TYPE: TWOD_COORDS
NODE_COORD_SECTION: 
11 26 27
1 19 21
12 22 27
2 26 35
10 20 20
6 25 24
4 35 35
9 26 29
5 21 24
3 25 30
7 30 25
8 25 32
DEPOT_SECTION: 
4
-1
DEMAND_SECTION: 
4 0
8 25
2 15
11 27
5 28
7 23
12 11
10 8
1 10
3 3
9 27
6 20
EOF
