benchmarks_vrp/CMT5/tsp_classic/CMT5_3.tour
NAME: CMT5_3 solution
TYPE: TOUR
TOUR_SECTION:
4 2 8 3 9 11 12 5 1 10 6 7 -1
-1
EOF